40

Zr 18.03731 12.67549 1.94471
O 18.75773 14.18215 3.17057
O 18.41077 14.33004 0.68204
H 18.1757 14.43476 -0.23205
O 16.33772 13.60175 2.81391
H 15.42247 13.45938 2.60304
H 21.38182 18.29487 2.08849
H 14.22233 13.88016 5.11528
C 16.71417 11.9156 -0.08273
C 17.05956 10.36217 1.51289
C 16.13011 11.27133 1.0059
C 18.21624 10.44771 0.74409
C 17.99439 11.42309 -0.25274
Zr 17.15368 14.9212 4.26727
Zr 19.43489 15.70343 1.93513
H 18.95569 18.86741 1.62438
H 15.63679 17.74717 4.5755
H 16.23881 12.51987 -0.72139
H 16.87414 9.66962 2.20956
H 15.1687 11.33617 1.2763
H 18.99458 9.81999 0.78697
H 18.58935 11.60106 -1.0392
O 17.60164 16.3615 2.78112
H 17.09565 17.13049 2.54755
H 18.20275 17.48781 -0.41871
C 16.08078 16.32481 6.12825
C 15.6083 15.02384 6.30784
C 14.80399 14.6886 5.19499
C 15.57439 16.80353 4.90139
C 14.79448 15.7978 4.32882
H 14.19742 15.90817 3.5363
C 20.7934 17.82167 1.43369
C 19.46963 18.12105 1.20063
C 19.05622 17.36226 0.08626
C 21.2258 16.87527 0.51455
C 20.13327 16.58417 -0.31882
H 22.16833 16.56899 0.38339
H 20.17288 16.04889 -1.16027
H 16.57405 16.86837 6.81028
H 15.70754 14.47752 7.13819
